Gurobi Optimizer version 9.1.2 build v9.1.2rc0 (linux64)
Thread count: 36 physical cores, 72 logical processors, using up to 32 threads
Optimize a model with 12 rows, 57 columns and 590 nonzeros
Model fingerprint: 0xf32eec78
Model has 47 quadratic constraints
Coefficient statistics:
  Matrix range     [2e-05, 3e+00]
  QMatrix range    [1e+00, 1e+00]
  QLMatrix range   [1e+00, 1e+00]
  Objective range  [8e-03, 7e-01]
  Bounds range     [1e+00, 1e+00]
  RHS range        [1e+00, 1e+00]
Presolve removed 9 rows and 0 columns

Continuous model is non-convex -- solving as a MIP.

Presolve removed 9 rows and 0 columns
Presolve time: 0.00s
Presolved: 189 rows, 57 columns, 443 nonzeros
Presolved model has 47 bilinear constraint(s)
Variable types: 57 continuous, 0 integer (0 binary)

Root relaxation: objective -1.743721e+00, 44 iterations, 0.00 seconds

    Nodes    |    Current Node    |     Objective Bounds      |     Work
 Expl Unexpl |  Obj  Depth IntInf | Incumbent    BestBd   Gap | It/Node Time

     0     0   -1.74372    0   38          -   -1.74372      -     -    0s
H    0     0                       0.6147548   -1.74372   384%     -    0s
     0     0   -1.64739    0    1    0.61475   -1.64739   368%     -    0s
H    0     0                      -1.6450460   -1.64739  0.14%     -    0s
     0     0     cutoff    0        -1.64505   -1.64505  0.00%     -    0s

Cutting planes:
  RLT: 25
  BQP: 3

Explored 1 nodes (76 simplex iterations) in 0.01 seconds
Thread count was 32 (of 72 available processors)

Solution count 2: -1.64505 0.614755 
No other solutions better than -1.64505

Optimal solution found (tolerance 1.00e-04)
Best objective -1.645045978473e+00, best bound -1.645045978473e+00, gap 0.0000%

User-callback calls 78, time in user-callback 0.00 sec
Gurobi Optimizer version 9.1.2 build v9.1.2rc0 (linux64)
Thread count: 36 physical cores, 72 logical processors, using up to 32 threads
Optimize a model with 24 rows, 125 columns and 2580 nonzeros
Model fingerprint: 0x4574a0b0
Model has 105 quadratic constraints
Coefficient statistics:
  Matrix range     [4e-06, 5e+01]
  QMatrix range    [1e+00, 1e+00]
  QLMatrix range   [1e+00, 1e+00]
  Objective range  [2e-02, 2e+00]
  Bounds range     [1e+00, 1e+00]
  RHS range        [1e+00, 1e+00]
Presolve removed 10 rows and 0 columns

Continuous model is non-convex -- solving as a MIP.

Presolve removed 10 rows and 0 columns
Presolve time: 0.00s
Presolved: 429 rows, 125 columns, 2142 nonzeros
Presolved model has 105 bilinear constraint(s)
Variable types: 125 continuous, 0 integer (0 binary)

Root relaxation: objective -9.293060e+00, 133 iterations, 0.00 seconds

    Nodes    |    Current Node    |     Objective Bounds      |     Work
 Expl Unexpl |  Obj  Depth IntInf | Incumbent    BestBd   Gap | It/Node Time

     0     0   -9.29306    0   51          -   -9.29306      -     -    0s
H    0     0                      -0.6539152   -9.29306  1321%     -    0s
     0     0   -7.15493    0   95   -0.65392   -7.15493   994%     -    0s
H    0     0                      -1.1710573   -7.15493   511%     -    0s
     0     0   -7.10284    0   95   -1.17106   -7.10284   507%     -    0s
     0     0   -6.64616    0   61   -1.17106   -6.64616   468%     -    0s
H    0     0                      -3.0139880   -6.64616   121%     -    0s
     0     0   -6.62781    0   61   -3.01399   -6.62781   120%     -    0s
     0     0   -6.52848    0   53   -3.01399   -6.52848   117%     -    0s
     0     0   -6.52102    0   70   -3.01399   -6.52102   116%     -    0s
     0     0   -6.50762    0   70   -3.01399   -6.50762   116%     -    0s
     0     0   -6.50560    0   70   -3.01399   -6.50560   116%     -    0s
     0     0   -6.50231    0   70   -3.01399   -6.50231   116%     -    0s
     0     0   -6.50130    0   70   -3.01399   -6.50130   116%     -    0s
     0     0   -6.49702    0   70   -3.01399   -6.49702   116%     -    0s
H    0     0                      -3.1492302   -6.49702   106%     -    0s
H    0     0                      -4.4141793   -6.49702  47.2%     -    0s
H    0     0                      -4.5269190   -6.49702  43.5%     -    0s
H    0     0                      -4.6365564   -6.49702  40.1%     -    0s
H    0     0                      -4.8715745   -6.49702  33.4%     -    0s
     0     2   -6.49702    0   70   -4.87157   -6.49702  33.4%     -    0s
*  508   390              20      -4.8769941   -5.73334  17.6%  34.8    0s
*  611   474              20      -4.8771510   -5.73334  17.6%  32.3    0s
*  689   474              19      -4.9806515   -5.73334  15.1%  30.2    0s
*  714   540              23      -5.3611930   -5.66777  5.72%  29.9    0s
*  875   426              25      -5.3612150   -5.61498  4.73%  27.9    0s
* 1095   458              16      -5.3969867   -5.53294  2.52%  25.5    0s
* 1308   378              16      -5.3972256   -5.53294  2.51%  22.6    0s
* 1363   378              17      -5.4009431   -5.53294  2.44%  22.1    0s
* 1365   378              18      -5.4010140   -5.53294  2.44%  22.0    0s
* 1405   378              19      -5.4153035   -5.53294  2.17%  21.6    0s
* 1540   344              22      -5.4170842   -5.50542  1.63%  20.2    0s
* 1543   344              20      -5.4171645   -5.50542  1.63%  20.1    0s
* 1549   344              22      -5.4215678   -5.50542  1.55%  20.1    0s
* 1553   344              21      -5.4216279   -5.50542  1.55%  20.1    0s
* 1564   344              23      -5.4232849   -5.50542  1.51%  20.0    0s
* 1873   215              15      -5.4243469   -5.50542  1.49%  17.5    0s
* 1878   215              17      -5.4246701   -5.50542  1.49%  17.4    0s
* 1886   215              18      -5.4261411   -5.50542  1.46%  17.4    0s
* 1887   215              18      -5.4261619   -5.50542  1.46%  17.4    0s
* 1940   215              17      -5.4261817   -5.46839  0.78%  17.0    0s
* 1942   215              18      -5.4262917   -5.46839  0.78%  17.0    0s
* 2114   215              19      -5.4263081   -5.46839  0.78%  16.0    0s
* 2263    15              20      -5.4263165   -5.44941  0.43%  15.0    0s
* 2341    15              21      -5.4263441   -5.42635  0.00%  14.6    0s
* 2342    15              21      -5.4263446   -5.42635  0.00%  14.6    0s
* 2409    15              23      -5.4263466   -5.42635  0.00%  14.2    0s

Cutting planes:
  RLT: 51
  BQP: 10
  PSD: 41

Explored 2455 nodes (34638 simplex iterations) in 0.68 seconds
Thread count was 32 (of 72 available processors)

Solution count 10: -5.42635 -5.42634 -5.42632 ... -5.42435
No other solutions better than -5.42635

Optimal solution found (tolerance 1.00e-04)
Best objective -5.426346561570e+00, best bound -5.426346561570e+00, gap 0.0000%

User-callback calls 5217, time in user-callback 0.00 sec



objective value: -5.426346561569715
objective bound: -5.426346561569715
x_opt: [1.0, 0.0, 1.0, 0.0, 0.22329048273335877, 0.0, 1.0, 1.0, 0.42364308913596915, 0.0, 0.0, 0.0, 0.8417042636124052, 0.0, 0.45683821179634604, 0.3304916903661801, 0.0, 0.0, 0.0, 0.0]
GUROBI solution time: 0.679448127746582




